c instance by G2
c solution = 010000000011010001011
c Known solution cost is 948 
p cnf 21 30
w 24 69 25 67 31 48 34 36 54 63 41 52 92 28 0 38 18 52 79 45 52
-12 -7 1 0
10 -15 17 0
16 5 -8 0
-13 14 -19 0
9 -3 -18 0
14 12 5 0
-10 3 4 0
-1 -18 13 0
-5 10 9 0
-20 -5 -4 0
-18 8 2 0
-12 -4 9 0
4 -10 16 0
12 14 3 0
-11 20 17 0
-21 9 -19 0
14 -6 2 0
11 19 -18 0
3 12 6 0
8 -21 -17 0
21 1 -18 0
3 2 14 0
-11 9 -6 0
-13 -14 6 0
-15 5 -10 0
-20 -9 7 0
10 -6 17 0
18 -2 13 0
14 1 9 0
9 -16 15 0
